p cnf 965 2478
51 -2 -1 0
-51 2 0
-51 1 0
52 -51 -3 0
-52 51 0
-52 3 0
53 -698 -4 0
-53 698 0
-53 4 0
54 -53 -699 0
-54 53 0
-54 699 0
55 -700 -701 0
-55 700 0
-55 701 0
56 -702 -7 0
-56 702 0
-56 7 0
57 -56 -703 0
-57 56 0
-57 703 0
58 -704 -55 0
-58 704 0
-58 55 0
59 -705 -703 0
-59 705 0
-59 703 0
60 -59 -706 0
-60 59 0
-60 706 0
61 -707 -58 0
-61 707 0
-61 58 0
62 -12 -708 0
-62 12 0
-62 708 0
63 -62 -13 0
-63 62 0
-63 13 0
64 -709 -61 0
-64 709 0
-64 61 0
65 -15 -14 0
-65 15 0
-65 14 0
66 -65 -710 0
-66 65 0
-66 710 0
67 -711 -64 0
-67 711 0
-67 64 0
68 -712 -713 0
-68 712 0
-68 713 0
69 -68 -714 0
-69 68 0
-69 714 0
70 -715 -67 0
-70 715 0
-70 67 0
71 -712 -15 0
-71 712 0
-71 15 0
72 -71 -20 0
-72 71 0
-72 20 0
73 -716 -70 0
-73 716 0
-73 70 0
74 -21 -10 0
-74 21 0
-74 10 0
75 -74 -11 0
-75 74 0
-75 11 0
76 -717 -73 0
-76 717 0
-76 73 0
77 -23 -22 0
-77 23 0
-77 22 0
78 -77 -710 0
-78 77 0
-78 710 0
79 -718 -76 0
-79 718 0
-79 76 0
80 -24 -719 0
-80 24 0
-80 719 0
81 -80 -25 0
-81 80 0
-81 25 0
82 -720 -79 0
-82 720 0
-82 79 0
83 -721 -20 0
-83 721 0
-83 20 0
84 -83 -722 0
-84 83 0
-84 722 0
85 -723 -82 0
-85 723 0
-85 82 0
86 -12 -702 0
-86 12 0
-86 702 0
87 -86 -724 0
-87 86 0
-87 724 0
88 -725 -85 0
-88 725 0
-88 85 0
89 -28 -726 0
-89 28 0
-89 726 0
90 -89 -29 0
-90 89 0
-90 29 0
91 -727 -88 0
-91 727 0
-91 88 0
92 -728 -10 0
-92 728 0
-92 10 0
93 -92 -729 0
-93 92 0
-93 729 0
94 -730 -91 0
-94 730 0
-94 91 0
95 -731 -32 0
-95 731 0
-95 32 0
96 -95 -732 0
-96 95 0
-96 732 0
97 -733 -94 0
-97 733 0
-97 94 0
98 -734 -698 0
-98 734 0
-98 698 0
99 -98 -36 0
-99 98 0
-99 36 0
100 -735 -97 0
-100 735 0
-100 97 0
101 -77 -724 0
-101 77 0
-101 724 0
102 -736 -100 0
-102 736 0
-102 100 0
103 -737 -738 0
-103 737 0
-103 738 0
104 -103 -3 0
-104 103 0
-104 3 0
105 -739 -102 0
-105 739 0
-105 102 0
106 -721 -7 0
-106 721 0
-106 7 0
107 -106 -31 0
-107 106 0
-107 31 0
108 -740 -105 0
-108 740 0
-108 105 0
109 -34 -726 0
-109 34 0
-109 726 0
110 -109 -23 0
-110 109 0
-110 23 0
111 -741 -108 0
-111 741 0
-111 108 0
112 -742 -743 0
-112 742 0
-112 743 0
113 -112 -23 0
-113 112 0
-113 23 0
114 -744 -111 0
-114 744 0
-114 111 0
115 -27 -9 0
-115 27 0
-115 9 0
116 -115 -24 0
-116 115 0
-116 24 0
117 -745 -114 0
-117 745 0
-117 114 0
118 -746 -8 0
-118 746 0
-118 8 0
119 -118 -703 0
-119 118 0
-119 703 0
120 -747 -117 0
-120 747 0
-120 117 0
121 -41 -748 0
-121 41 0
-121 748 0
122 -121 -749 0
-122 121 0
-122 749 0
123 -750 -120 0
-123 750 0
-123 120 0
124 -751 -752 0
-124 751 0
-124 752 0
125 -124 -724 0
-125 124 0
-125 724 0
126 -753 -123 0
-126 753 0
-126 123 0
127 -44 -1 0
-127 44 0
-127 1 0
128 -127 -754 0
-128 127 0
-128 754 0
129 -755 -126 0
-129 755 0
-129 126 0
130 -43 -714 0
-130 43 0
-130 714 0
131 -130 -25 0
-131 130 0
-131 25 0
132 -756 -129 0
-132 756 0
-132 129 0
133 -734 -705 0
-133 734 0
-133 705 0
134 -133 -757 0
-134 133 0
-134 757 0
135 -758 -132 0
-135 758 0
-135 132 0
136 -35 -26 0
-136 35 0
-136 26 0
137 -136 -724 0
-137 136 0
-137 724 0
138 -759 -135 0
-138 759 0
-138 135 0
139 -713 -752 0
-139 713 0
-139 752 0
140 -139 -45 0
-140 139 0
-140 45 0
141 -760 -138 0
-141 760 0
-141 138 0
142 -39 -698 0
-142 39 0
-142 698 0
143 -142 -3 0
-143 142 0
-143 3 0
144 -761 -141 0
-144 761 0
-144 141 0
145 -757 -762 0
-145 757 0
-145 762 0
146 -145 -3 0
-146 145 0
-146 3 0
147 -763 -144 0
-147 763 0
-147 144 0
148 -40 -38 0
-148 40 0
-148 38 0
149 -148 -722 0
-149 148 0
-149 722 0
150 -764 -147 0
-150 764 0
-150 147 0
151 -40 -12 0
-151 40 0
-151 12 0
152 -151 -24 0
-152 151 0
-152 24 0
153 -765 -150 0
-153 765 0
-153 150 0
154 -766 -767 0
-154 766 0
-154 767 0
155 -154 -699 0
-155 154 0
-155 699 0
156 -768 -153 0
-156 768 0
-156 153 0
157 -766 -21 0
-157 766 0
-157 21 0
158 -157 -732 0
-158 157 0
-158 732 0
159 -769 -156 0
-159 769 0
-159 156 0
160 -770 -21 0
-160 770 0
-160 21 0
161 -160 -706 0
-161 160 0
-161 706 0
162 -771 -159 0
-162 771 0
-162 159 0
163 -772 -19 0
-163 772 0
-163 19 0
164 -163 -31 0
-164 163 0
-164 31 0
165 -773 -162 0
-165 773 0
-165 162 0
166 -770 -33 0
-166 770 0
-166 33 0
167 -166 -12 0
-167 166 0
-167 12 0
168 -774 -165 0
-168 774 0
-168 165 0
169 -43 -19 0
-169 43 0
-169 19 0
170 -169 -729 0
-170 169 0
-170 729 0
171 -775 -168 0
-171 775 0
-171 168 0
172 -45 -37 0
-172 45 0
-172 37 0
173 -172 -754 0
-173 172 0
-173 754 0
174 -776 -171 0
-174 776 0
-174 171 0
175 -772 -36 0
-175 772 0
-175 36 0
176 -175 -42 0
-176 175 0
-176 42 0
177 -777 -174 0
-177 777 0
-177 174 0
178 -734 -778 0
-178 734 0
-178 778 0
179 -178 -36 0
-179 178 0
-179 36 0
180 -779 -177 0
-180 779 0
-180 177 0
181 -767 -780 0
-181 767 0
-181 780 0
182 -181 -781 0
-182 181 0
-182 781 0
183 -782 -180 0
-183 782 0
-183 180 0
184 -783 -705 0
-184 783 0
-184 705 0
185 -184 -3 0
-185 184 0
-185 3 0
186 -784 -183 0
-186 784 0
-186 183 0
187 -30 -719 0
-187 30 0
-187 719 0
188 -187 -785 0
-188 187 0
-188 785 0
189 -786 -186 0
-189 786 0
-189 186 0
190 -787 -767 0
-190 787 0
-190 767 0
191 -190 -737 0
-191 190 0
-191 737 0
192 -788 -189 0
-192 788 0
-192 189 0
193 -49 -766 0
-193 49 0
-193 766 0
194 -193 -749 0
-194 193 0
-194 749 0
195 -789 -192 0
-195 789 0
-195 192 0
196 -44 -778 0
-196 44 0
-196 778 0
197 -196 -790 0
-197 196 0
-197 790 0
198 -791 -195 0
-198 791 0
-198 195 0
199 -43 -38 0
-199 43 0
-199 38 0
200 -199 -732 0
-200 199 0
-200 732 0
201 -792 -198 0
-201 792 0
-201 198 0
202 -9 -699 0
-202 9 0
-202 699 0
203 -202 -710 0
-203 202 0
-203 710 0
204 -793 -201 0
-204 793 0
-204 201 0
205 -770 -45 0
-205 770 0
-205 45 0
206 -205 -710 0
-206 205 0
-206 710 0
207 -794 -204 0
-207 794 0
-207 204 0
208 -766 -30 0
-208 766 0
-208 30 0
209 -208 -38 0
-209 208 0
-209 38 0
210 -795 -207 0
-210 795 0
-210 207 0
211 -796 -797 0
-211 796 0
-211 797 0
212 -211 -724 0
-212 211 0
-212 724 0
213 -798 -210 0
-213 798 0
-213 210 0
214 -48 -26 0
-214 48 0
-214 26 0
215 -214 -25 0
-215 214 0
-215 25 0
216 -799 -213 0
-216 799 0
-216 213 0
217 -46 -721 0
-217 46 0
-217 721 0
218 -217 -703 0
-218 217 0
-218 703 0
219 -800 -216 0
-219 800 0
-219 216 0
220 -48 -797 0
-220 48 0
-220 797 0
221 -220 -785 0
-221 220 0
-221 785 0
222 -801 -219 0
-222 801 0
-222 219 0
223 -21 -708 0
-223 21 0
-223 708 0
224 -223 -20 0
-224 223 0
-224 20 0
225 -802 -222 0
-225 802 0
-225 222 0
226 -43 -30 0
-226 43 0
-226 30 0
227 -226 -722 0
-227 226 0
-227 722 0
228 -803 -225 0
-228 803 0
-228 225 0
229 -742 -19 0
-229 742 0
-229 19 0
230 -229 -13 0
-230 229 0
-230 13 0
231 -804 -228 0
-231 804 0
-231 228 0
232 -767 -7 0
-232 767 0
-232 7 0
233 -232 -728 0
-233 232 0
-233 728 0
234 -805 -231 0
-234 805 0
-234 231 0
235 -50 -8 0
-235 50 0
-235 8 0
236 -235 -5 0
-236 235 0
-236 5 0
237 -806 -234 0
-237 806 0
-237 234 0
238 -32 -3 0
-238 32 0
-238 3 0
239 -238 -722 0
-239 238 0
-239 722 0
240 -807 -237 0
-240 807 0
-240 237 0
241 -50 -731 0
-241 50 0
-241 731 0
242 -241 -752 0
-242 241 0
-242 752 0
243 -808 -240 0
-243 808 0
-243 240 0
244 -35 -781 0
-244 35 0
-244 781 0
245 -244 -714 0
-245 244 0
-245 714 0
246 -809 -243 0
-246 809 0
-246 243 0
247 -48 -33 0
-247 48 0
-247 33 0
248 -247 -729 0
-248 247 0
-248 729 0
249 -810 -246 0
-249 810 0
-249 246 0
250 -751 -706 0
-250 751 0
-250 706 0
251 -250 -29 0
-251 250 0
-251 29 0
252 -811 -249 0
-252 811 0
-252 249 0
253 -726 -714 0
-253 726 0
-253 714 0
254 -253 -16 0
-254 253 0
-254 16 0
255 -812 -252 0
-255 812 0
-255 252 0
256 -40 -734 0
-256 40 0
-256 734 0
257 -256 -37 0
-257 256 0
-257 37 0
258 -813 -255 0
-258 813 0
-258 255 0
259 -783 -790 0
-259 783 0
-259 790 0
260 -259 -722 0
-260 259 0
-260 722 0
261 -814 -258 0
-261 814 0
-261 258 0
262 -22 -752 0
-262 22 0
-262 752 0
263 -262 -34 0
-263 262 0
-263 34 0
264 -815 -261 0
-264 815 0
-264 261 0
265 -21 -7 0
-265 21 0
-265 7 0
266 -265 -699 0
-266 265 0
-266 699 0
267 -816 -264 0
-267 816 0
-267 264 0
268 -13 -702 0
-268 13 0
-268 702 0
269 -268 -722 0
-269 268 0
-269 722 0
270 -817 -267 0
-270 817 0
-270 267 0
271 -757 -818 0
-271 757 0
-271 818 0
272 -271 -710 0
-272 271 0
-272 710 0
273 -819 -270 0
-273 819 0
-273 270 0
274 -46 -22 0
-274 46 0
-274 22 0
275 -274 -20 0
-275 274 0
-275 20 0
276 -820 -273 0
-276 820 0
-276 273 0
277 -726 -698 0
-277 726 0
-277 698 0
278 -277 -34 0
-278 277 0
-278 34 0
279 -821 -276 0
-279 821 0
-279 276 0
280 -787 -783 0
-280 787 0
-280 783 0
281 -280 -766 0
-281 280 0
-281 766 0
282 -822 -279 0
-282 822 0
-282 279 0
283 -748 -39 0
-283 748 0
-283 39 0
284 -283 -749 0
-284 283 0
-284 749 0
285 -823 -282 0
-285 823 0
-285 282 0
286 -742 -11 0
-286 742 0
-286 11 0
287 -286 -729 0
-287 286 0
-287 729 0
288 -824 -285 0
-288 824 0
-288 285 0
289 -22 -19 0
-289 22 0
-289 19 0
290 -289 -698 0
-290 289 0
-290 698 0
291 -825 -288 0
-291 825 0
-291 288 0
292 -27 -703 0
-292 27 0
-292 703 0
293 -292 -729 0
-293 292 0
-293 729 0
294 -826 -291 0
-294 826 0
-294 291 0
295 -44 -751 0
-295 44 0
-295 751 0
296 -295 -6 0
-296 295 0
-296 6 0
297 -827 -294 0
-297 827 0
-297 294 0
298 -45 -9 0
-298 45 0
-298 9 0
299 -298 -828 0
-299 298 0
-299 828 0
300 -829 -297 0
-300 829 0
-300 297 0
301 -27 -708 0
-301 27 0
-301 708 0
302 -301 -13 0
-302 301 0
-302 13 0
303 -830 -300 0
-303 830 0
-303 300 0
304 -703 -4 0
-304 703 0
-304 4 0
305 -304 -751 0
-305 304 0
-305 751 0
306 -831 -303 0
-306 831 0
-306 303 0
307 -828 -785 0
-307 828 0
-307 785 0
308 -307 -722 0
-308 307 0
-308 722 0
309 -832 -306 0
-309 832 0
-309 306 0
310 -734 -703 0
-310 734 0
-310 703 0
311 -310 -36 0
-311 310 0
-311 36 0
312 -833 -309 0
-312 833 0
-312 309 0
313 -796 -14 0
-313 796 0
-313 14 0
314 -313 -797 0
-314 313 0
-314 797 0
315 -834 -312 0
-315 834 0
-315 312 0
316 -742 -4 0
-316 742 0
-316 4 0
317 -316 -5 0
-317 316 0
-317 5 0
318 -835 -315 0
-318 835 0
-318 315 0
319 -39 -743 0
-319 39 0
-319 743 0
320 -319 -3 0
-320 319 0
-320 3 0
321 -836 -318 0
-321 836 0
-321 318 0
322 -742 -9 0
-322 742 0
-322 9 0
323 -322 -749 0
-323 322 0
-323 749 0
324 -837 -321 0
-324 837 0
-324 321 0
325 -770 -712 0
-325 770 0
-325 712 0
326 -325 -29 0
-326 325 0
-326 29 0
327 -838 -324 0
-327 838 0
-327 324 0
328 -783 -45 0
-328 783 0
-328 45 0
329 -328 -30 0
-329 328 0
-329 30 0
330 -839 -327 0
-330 839 0
-330 327 0
331 -32 -767 0
-331 32 0
-331 767 0
332 -331 -766 0
-332 331 0
-332 766 0
333 -840 -330 0
-333 840 0
-333 330 0
334 -766 -702 0
-334 766 0
-334 702 0
335 -334 -703 0
-335 334 0
-335 703 0
336 -841 -333 0
-336 841 0
-336 333 0
337 -767 -703 0
-337 767 0
-337 703 0
338 -337 -3 0
-338 337 0
-338 3 0
339 -842 -336 0
-339 842 0
-339 336 0
340 -783 -780 0
-340 783 0
-340 780 0
341 -340 -778 0
-341 340 0
-341 778 0
342 -843 -339 0
-342 843 0
-342 339 0
343 -45 -35 0
-343 45 0
-343 35 0
344 -343 -751 0
-344 343 0
-344 751 0
345 -844 -342 0
-345 844 0
-345 342 0
346 -734 -719 0
-346 734 0
-346 719 0
347 -346 -828 0
-347 346 0
-347 828 0
348 -845 -345 0
-348 845 0
-348 345 0
349 -30 -9 0
-349 30 0
-349 9 0
350 -349 -818 0
-350 349 0
-350 818 0
351 -846 -348 0
-351 846 0
-351 348 0
352 -35 -728 0
-352 35 0
-352 728 0
353 -352 -38 0
-353 352 0
-353 38 0
354 -847 -351 0
-354 847 0
-354 351 0
355 -27 -11 0
-355 27 0
-355 11 0
356 -355 -34 0
-356 355 0
-356 34 0
357 -848 -354 0
-357 848 0
-357 354 0
358 -8 -7 0
-358 8 0
-358 7 0
359 -358 -24 0
-359 358 0
-359 24 0
360 -849 -357 0
-360 849 0
-360 357 0
361 -27 -828 0
-361 27 0
-361 828 0
362 -361 -42 0
-362 361 0
-362 42 0
363 -850 -360 0
-363 850 0
-363 360 0
364 -35 -818 0
-364 35 0
-364 818 0
365 -364 -722 0
-365 364 0
-365 722 0
366 -851 -363 0
-366 851 0
-366 363 0
367 -49 -18 0
-367 49 0
-367 18 0
368 -367 -50 0
-368 367 0
-368 50 0
369 -852 -366 0
-369 852 0
-369 366 0
370 -742 -7 0
-370 742 0
-370 7 0
371 -370 -5 0
-371 370 0
-371 5 0
372 -853 -369 0
-372 853 0
-372 369 0
373 -45 -33 0
-373 45 0
-373 33 0
374 -373 -698 0
-374 373 0
-374 698 0
375 -854 -372 0
-375 854 0
-375 372 0
376 -772 -778 0
-376 772 0
-376 778 0
377 -376 -34 0
-377 376 0
-377 34 0
378 -855 -375 0
-378 855 0
-378 375 0
379 -40 -712 0
-379 40 0
-379 712 0
380 -379 -785 0
-380 379 0
-380 785 0
381 -856 -378 0
-381 856 0
-381 378 0
382 -732 -726 0
-382 732 0
-382 726 0
383 -382 -828 0
-383 382 0
-383 828 0
384 -857 -381 0
-384 857 0
-384 381 0
385 -770 -728 0
-385 770 0
-385 728 0
386 -385 -31 0
-386 385 0
-386 31 0
387 -858 -384 0
-387 858 0
-387 384 0
388 -719 -738 0
-388 719 0
-388 738 0
389 -388 -797 0
-389 388 0
-389 797 0
390 -859 -387 0
-390 859 0
-390 387 0
391 -778 -1 0
-391 778 0
-391 1 0
392 -391 -19 0
-392 391 0
-392 19 0
393 -860 -390 0
-393 860 0
-393 390 0
394 -32 -702 0
-394 32 0
-394 702 0
395 -394 -724 0
-395 394 0
-395 724 0
396 -861 -393 0
-396 861 0
-396 393 0
397 -778 -699 0
-397 778 0
-397 699 0
398 -397 -790 0
-398 397 0
-398 790 0
399 -862 -396 0
-399 862 0
-399 396 0
400 -22 -1 0
-400 22 0
-400 1 0
401 -400 -48 0
-401 400 0
-401 48 0
402 -863 -399 0
-402 863 0
-402 399 0
403 -26 -9 0
-403 26 0
-403 9 0
404 -403 -31 0
-404 403 0
-404 31 0
405 -864 -402 0
-405 864 0
-405 402 0
406 -49 -36 0
-406 49 0
-406 36 0
407 -406 -754 0
-407 406 0
-407 754 0
408 -865 -405 0
-408 865 0
-408 405 0
409 -48 -14 0
-409 48 0
-409 14 0
410 -409 -724 0
-410 409 0
-410 724 0
411 -866 -408 0
-411 866 0
-411 408 0
412 -49 -731 0
-412 49 0
-412 731 0
413 -412 -10 0
-413 412 0
-413 10 0
414 -867 -411 0
-414 867 0
-414 411 0
415 -770 -734 0
-415 770 0
-415 734 0
416 -415 -23 0
-416 415 0
-416 23 0
417 -868 -414 0
-417 868 0
-417 414 0
418 -728 -726 0
-418 728 0
-418 726 0
419 -418 -762 0
-419 418 0
-419 762 0
420 -869 -417 0
-420 869 0
-420 417 0
421 -229 -43 0
-421 229 0
-421 43 0
422 -870 -420 0
-422 870 0
-422 420 0
423 -49 -871 0
-423 49 0
-423 871 0
424 -423 -11 0
-424 423 0
-424 11 0
425 -872 -422 0
-425 872 0
-425 422 0
426 -48 -46 0
-426 48 0
-426 46 0
427 -426 -790 0
-427 426 0
-427 790 0
428 -873 -425 0
-428 873 0
-428 425 0
429 -783 -33 0
-429 783 0
-429 33 0
430 -429 -20 0
-430 429 0
-430 20 0
431 -874 -428 0
-431 874 0
-431 428 0
432 -50 -12 0
-432 50 0
-432 12 0
433 -432 -2 0
-433 432 0
-433 2 0
434 -875 -431 0
-434 875 0
-434 431 0
435 -50 -49 0
-435 50 0
-435 49 0
436 -435 -39 0
-436 435 0
-436 39 0
437 -876 -434 0
-437 876 0
-437 434 0
438 -726 -871 0
-438 726 0
-438 871 0
439 -438 -31 0
-439 438 0
-439 31 0
440 -877 -437 0
-440 877 0
-440 437 0
441 -26 -702 0
-441 26 0
-441 702 0
442 -441 -724 0
-442 441 0
-442 724 0
443 -878 -440 0
-443 878 0
-443 440 0
444 -49 -44 0
-444 49 0
-444 44 0
445 -444 -754 0
-445 444 0
-445 754 0
446 -879 -443 0
-446 879 0
-446 443 0
447 -37 -726 0
-447 37 0
-447 726 0
448 -447 -742 0
-448 447 0
-448 742 0
449 -880 -446 0
-449 880 0
-449 446 0
450 -728 -5 0
-450 728 0
-450 5 0
451 -450 -11 0
-451 450 0
-451 11 0
452 -881 -449 0
-452 881 0
-452 449 0
453 -27 -702 0
-453 27 0
-453 702 0
454 -453 -719 0
-454 453 0
-454 719 0
455 -882 -452 0
-455 882 0
-455 452 0
456 -26 -8 0
-456 26 0
-456 8 0
457 -456 -724 0
-457 456 0
-457 724 0
458 -883 -455 0
-458 883 0
-458 455 0
459 -705 -738 0
-459 705 0
-459 738 0
460 -459 -23 0
-460 459 0
-460 23 0
461 -884 -458 0
-461 884 0
-461 458 0
462 -41 -19 0
-462 41 0
-462 19 0
463 -462 -749 0
-463 462 0
-463 749 0
464 -885 -461 0
-464 885 0
-464 461 0
465 -766 -32 0
-465 766 0
-465 32 0
466 -465 -729 0
-466 465 0
-466 729 0
467 -886 -464 0
-467 886 0
-467 464 0
468 -23 -14 0
-468 23 0
-468 14 0
469 -468 -710 0
-469 468 0
-469 710 0
470 -887 -467 0
-470 887 0
-470 467 0
471 -19 -781 0
-471 19 0
-471 781 0
472 -471 -757 0
-472 471 0
-472 757 0
473 -888 -470 0
-473 888 0
-473 470 0
474 -787 -751 0
-474 787 0
-474 751 0
475 -474 -710 0
-475 474 0
-475 710 0
476 -889 -473 0
-476 889 0
-476 473 0
477 -767 -3 0
-477 767 0
-477 3 0
478 -477 -724 0
-478 477 0
-478 724 0
479 -890 -476 0
-479 890 0
-479 476 0
480 -39 -23 0
-480 39 0
-480 23 0
481 -480 -722 0
-481 480 0
-481 722 0
482 -891 -479 0
-482 891 0
-482 479 0
483 -770 -757 0
-483 770 0
-483 757 0
484 -483 -818 0
-484 483 0
-484 818 0
485 -892 -482 0
-485 892 0
-485 482 0
486 -46 -15 0
-486 46 0
-486 15 0
487 -486 -797 0
-487 486 0
-487 797 0
488 -893 -485 0
-488 893 0
-488 485 0
489 -734 -14 0
-489 734 0
-489 14 0
490 -489 -781 0
-490 489 0
-490 781 0
491 -894 -488 0
-491 894 0
-491 488 0
492 -781 -14 0
-492 781 0
-492 14 0
493 -492 -34 0
-493 492 0
-493 34 0
494 -895 -491 0
-494 895 0
-494 491 0
495 -702 -1 0
-495 702 0
-495 1 0
496 -495 -10 0
-496 495 0
-496 10 0
497 -896 -494 0
-497 896 0
-497 494 0
498 -746 -5 0
-498 746 0
-498 5 0
499 -498 -790 0
-499 498 0
-499 790 0
500 -897 -497 0
-500 897 0
-500 497 0
501 -898 -8 0
-501 898 0
-501 8 0
502 -501 -703 0
-502 501 0
-502 703 0
503 -899 -500 0
-503 899 0
-503 500 0
504 -12 -5 0
-504 12 0
-504 5 0
505 -504 -16 0
-505 504 0
-505 16 0
506 -900 -503 0
-506 900 0
-506 503 0
507 -160 -746 0
-507 160 0
-507 746 0
508 -901 -506 0
-508 901 0
-508 506 0
509 -737 -8 0
-509 737 0
-509 8 0
510 -509 -710 0
-510 509 0
-510 710 0
511 -902 -508 0
-511 902 0
-511 508 0
512 -98 -13 0
-512 98 0
-512 13 0
513 -903 -511 0
-513 903 0
-513 511 0
514 -770 -746 0
-514 770 0
-514 746 0
515 -514 -762 0
-515 514 0
-515 762 0
516 -904 -513 0
-516 904 0
-516 513 0
517 -39 -21 0
-517 39 0
-517 21 0
518 -517 -3 0
-518 517 0
-518 3 0
519 -905 -516 0
-519 905 0
-519 516 0
520 -44 -5 0
-520 44 0
-520 5 0
521 -520 -785 0
-521 520 0
-521 785 0
522 -906 -519 0
-522 906 0
-522 519 0
523 -781 -7 0
-523 781 0
-523 7 0
524 -523 -752 0
-524 523 0
-524 752 0
525 -907 -522 0
-525 907 0
-525 522 0
526 -40 -17 0
-526 40 0
-526 17 0
527 -526 -749 0
-527 526 0
-527 749 0
528 -908 -525 0
-528 908 0
-528 525 0
529 -8 -4 0
-529 8 0
-529 4 0
530 -529 -749 0
-530 529 0
-530 749 0
531 -909 -528 0
-531 909 0
-531 528 0
532 -766 -45 0
-532 766 0
-532 45 0
533 -532 -3 0
-533 532 0
-533 3 0
534 -910 -531 0
-534 910 0
-534 531 0
535 -783 -699 0
-535 783 0
-535 699 0
536 -535 -29 0
-536 535 0
-536 29 0
537 -911 -534 0
-537 911 0
-537 534 0
538 -37 -780 0
-538 37 0
-538 780 0
539 -538 -43 0
-539 538 0
-539 43 0
540 -912 -537 0
-540 912 0
-540 537 0
541 -38 -699 0
-541 38 0
-541 699 0
542 -541 -729 0
-542 541 0
-542 729 0
543 -913 -540 0
-543 913 0
-543 540 0
544 -737 -30 0
-544 737 0
-544 30 0
545 -544 -772 0
-545 544 0
-545 772 0
546 -914 -543 0
-546 914 0
-546 543 0
547 -50 -732 0
-547 50 0
-547 732 0
548 -547 -710 0
-548 547 0
-548 710 0
549 -915 -546 0
-549 915 0
-549 546 0
550 -40 -26 0
-550 40 0
-550 26 0
551 -550 -13 0
-551 550 0
-551 13 0
552 -916 -549 0
-552 916 0
-552 549 0
553 -39 -871 0
-553 39 0
-553 871 0
554 -553 -10 0
-554 553 0
-554 10 0
555 -917 -552 0
-555 917 0
-555 552 0
556 -726 -778 0
-556 726 0
-556 778 0
557 -556 -29 0
-557 556 0
-557 29 0
558 -918 -555 0
-558 918 0
-558 555 0
559 -751 -1 0
-559 751 0
-559 1 0
560 -559 -749 0
-560 559 0
-560 749 0
561 -919 -558 0
-561 919 0
-561 558 0
562 -28 -23 0
-562 28 0
-562 23 0
563 -562 -724 0
-563 562 0
-563 724 0
564 -920 -561 0
-564 920 0
-564 561 0
565 -787 -780 0
-565 787 0
-565 780 0
566 -565 -703 0
-566 565 0
-566 703 0
567 -921 -564 0
-567 921 0
-567 564 0
568 -45 -8 0
-568 45 0
-568 8 0
569 -568 -27 0
-569 568 0
-569 27 0
570 -922 -567 0
-570 922 0
-570 567 0
571 -783 -703 0
-571 783 0
-571 703 0
572 -571 -790 0
-572 571 0
-572 790 0
573 -923 -570 0
-573 923 0
-573 570 0
574 -752 -702 0
-574 752 0
-574 702 0
575 -574 -719 0
-575 574 0
-575 719 0
576 -924 -573 0
-576 924 0
-576 573 0
577 -714 -1 0
-577 714 0
-577 1 0
578 -577 -728 0
-578 577 0
-578 728 0
579 -925 -576 0
-579 925 0
-579 576 0
580 -729 -11 0
-580 729 0
-580 11 0
581 -580 -749 0
-581 580 0
-581 749 0
582 -926 -579 0
-582 926 0
-582 579 0
583 -41 -10 0
-583 41 0
-583 10 0
584 -583 -785 0
-584 583 0
-584 785 0
585 -927 -582 0
-585 927 0
-585 582 0
586 -50 -702 0
-586 50 0
-586 702 0
587 -586 -45 0
-587 586 0
-587 45 0
588 -928 -585 0
-588 928 0
-588 585 0
589 -27 -818 0
-589 27 0
-589 818 0
590 -589 -729 0
-590 589 0
-590 729 0
591 -929 -588 0
-591 929 0
-591 588 0
592 -783 -37 0
-592 783 0
-592 37 0
593 -592 -38 0
-593 592 0
-593 38 0
594 -930 -591 0
-594 930 0
-594 591 0
595 -724 -752 0
-595 724 0
-595 752 0
596 -595 -754 0
-596 595 0
-596 754 0
597 -931 -594 0
-597 931 0
-597 594 0
598 -770 -22 0
-598 770 0
-598 22 0
599 -598 -15 0
-599 598 0
-599 15 0
600 -932 -597 0
-600 932 0
-600 597 0
601 -13 -708 0
-601 13 0
-601 708 0
602 -601 -29 0
-602 601 0
-602 29 0
603 -933 -600 0
-603 933 0
-603 600 0
604 -714 -712 0
-604 714 0
-604 712 0
605 -604 -9 0
-605 604 0
-605 9 0
606 -934 -603 0
-606 934 0
-606 603 0
607 -748 -713 0
-607 748 0
-607 713 0
608 -607 -42 0
-608 607 0
-608 42 0
609 -935 -606 0
-609 935 0
-609 606 0
610 -746 -19 0
-610 746 0
-610 19 0
611 -610 -785 0
-611 610 0
-611 785 0
612 -936 -609 0
-612 936 0
-612 609 0
613 -726 -4 0
-613 726 0
-613 4 0
614 -613 -13 0
-614 613 0
-614 13 0
615 -937 -612 0
-615 937 0
-615 612 0
616 -35 -714 0
-616 35 0
-616 714 0
617 -616 -743 0
-617 616 0
-617 743 0
618 -938 -615 0
-618 938 0
-618 615 0
619 -751 -780 0
-619 751 0
-619 780 0
620 -619 -818 0
-620 619 0
-620 818 0
621 -939 -618 0
-621 939 0
-621 618 0
622 -787 -898 0
-622 787 0
-622 898 0
623 -622 -699 0
-623 622 0
-623 699 0
624 -940 -621 0
-624 940 0
-624 621 0
625 -379 -46 0
-625 379 0
-625 46 0
626 -941 -624 0
-626 941 0
-626 624 0
627 -721 -871 0
-627 721 0
-627 871 0
628 -627 -726 0
-628 627 0
-628 726 0
629 -942 -626 0
-629 942 0
-629 626 0
630 -19 -7 0
-630 19 0
-630 7 0
631 -630 -45 0
-631 630 0
-631 45 0
632 -943 -629 0
-632 943 0
-632 629 0
633 -48 -818 0
-633 48 0
-633 818 0
634 -633 -828 0
-634 633 0
-634 828 0
635 -944 -632 0
-635 944 0
-635 632 0
636 -770 -6 0
-636 770 0
-636 6 0
637 -636 -13 0
-637 636 0
-637 13 0
638 -945 -635 0
-638 945 0
-638 635 0
639 -50 -752 0
-639 50 0
-639 752 0
640 -639 -705 0
-640 639 0
-640 705 0
641 -946 -638 0
-641 946 0
-641 638 0
642 -751 -10 0
-642 751 0
-642 10 0
643 -642 -29 0
-643 642 0
-643 29 0
644 -947 -641 0
-644 947 0
-644 641 0
645 -22 -21 0
-645 22 0
-645 21 0
646 -645 -703 0
-646 645 0
-646 703 0
647 -948 -644 0
-647 948 0
-647 644 0
648 -778 -20 0
-648 778 0
-648 20 0
649 -648 -751 0
-649 648 0
-649 751 0
650 -949 -647 0
-650 949 0
-650 647 0
651 -783 -41 0
-651 783 0
-651 41 0
652 -651 -36 0
-652 651 0
-652 36 0
653 -950 -650 0
-653 950 0
-653 650 0
654 -49 -713 0
-654 49 0
-654 713 0
655 -654 -43 0
-655 654 0
-655 43 0
656 -951 -653 0
-656 951 0
-656 653 0
657 -20 -19 0
-657 20 0
-657 19 0
658 -657 -722 0
-658 657 0
-658 722 0
659 -952 -656 0
-659 952 0
-659 656 0
660 -762 -721 0
-660 762 0
-660 721 0
661 -660 -42 0
-661 660 0
-661 42 0
662 -953 -659 0
-662 953 0
-662 659 0
663 -48 -748 0
-663 48 0
-663 748 0
664 -663 -13 0
-664 663 0
-664 13 0
665 -954 -662 0
-665 954 0
-665 662 0
666 -783 -48 0
-666 783 0
-666 48 0
667 -666 -31 0
-667 666 0
-667 31 0
668 -955 -665 0
-668 955 0
-668 665 0
669 -732 -698 0
-669 732 0
-669 698 0
670 -669 -29 0
-670 669 0
-670 29 0
671 -956 -668 0
-671 956 0
-671 668 0
672 -724 -712 0
-672 724 0
-672 712 0
673 -672 -31 0
-673 672 0
-673 31 0
674 -957 -671 0
-674 957 0
-674 671 0
675 -49 -721 0
-675 49 0
-675 721 0
676 -675 -15 0
-676 675 0
-676 15 0
677 -958 -674 0
-677 958 0
-677 674 0
678 -712 -14 0
-678 712 0
-678 14 0
679 -678 -746 0
-679 678 0
-679 746 0
680 -959 -677 0
-680 959 0
-680 677 0
681 -752 -738 0
-681 752 0
-681 738 0
682 -681 -719 0
-682 681 0
-682 719 0
683 -960 -680 0
-683 960 0
-683 680 0
684 -112 -36 0
-684 112 0
-684 36 0
685 -961 -683 0
-685 961 0
-685 683 0
686 -11 -3 0
-686 11 0
-686 3 0
687 -686 -754 0
-687 686 0
-687 754 0
688 -962 -685 0
-688 962 0
-688 685 0
689 -42 -790 0
-689 42 0
-689 790 0
690 -689 -754 0
-690 689 0
-690 754 0
691 -963 -688 0
-691 963 0
-691 688 0
692 -17 -781 0
-692 17 0
-692 781 0
693 -692 -20 0
-693 692 0
-693 20 0
694 -964 -691 0
-694 964 0
-694 691 0
695 -770 -28 0
-695 770 0
-695 28 0
696 -695 -13 0
-696 695 0
-696 13 0
697 -965 -694 0
-697 965 0
-697 694 0
-698 -5 0
698 5 0
-699 -6 0
699 6 0
-700 -54 0
700 54 0
-701 -52 0
701 52 0
-702 -8 0
702 8 0
-703 -9 0
703 9 0
-704 -57 0
704 57 0
-705 -10 0
705 10 0
-706 -11 0
706 11 0
-707 -60 0
707 60 0
-708 -4 0
708 4 0
-709 -63 0
709 63 0
-710 -16 0
710 16 0
-711 -66 0
711 66 0
-712 -18 0
712 18 0
-713 -17 0
713 17 0
-714 -19 0
714 19 0
-715 -69 0
715 69 0
-716 -72 0
716 72 0
-717 -75 0
717 75 0
-718 -78 0
718 78 0
-719 -2 0
719 2 0
-720 -81 0
720 81 0
-721 -26 0
721 26 0
-722 -25 0
722 25 0
-723 -84 0
723 84 0
-724 -24 0
724 24 0
-725 -87 0
725 87 0
-726 -27 0
726 27 0
-727 -90 0
727 90 0
-728 -30 0
728 30 0
-729 -31 0
729 31 0
-730 -93 0
730 93 0
-731 -33 0
731 33 0
-732 -34 0
732 34 0
-733 -96 0
733 96 0
-734 -35 0
734 35 0
-735 -99 0
735 99 0
-736 -101 0
736 101 0
-737 -37 0
737 37 0
-738 -1 0
738 1 0
-739 -104 0
739 104 0
-740 -107 0
740 107 0
-741 -110 0
741 110 0
-742 -38 0
742 38 0
-743 -20 0
743 20 0
-744 -113 0
744 113 0
-745 -116 0
745 116 0
-746 -39 0
746 39 0
-747 -119 0
747 119 0
-748 -40 0
748 40 0
-749 -42 0
749 42 0
-750 -122 0
750 122 0
-751 -43 0
751 43 0
-752 -12 0
752 12 0
-753 -125 0
753 125 0
-754 -29 0
754 29 0
-755 -128 0
755 128 0
-756 -131 0
756 131 0
-757 -45 0
757 45 0
-758 -134 0
758 134 0
-759 -137 0
759 137 0
-760 -140 0
760 140 0
-761 -143 0
761 143 0
-762 -28 0
762 28 0
-763 -146 0
763 146 0
-764 -149 0
764 149 0
-765 -152 0
765 152 0
-766 -46 0
766 46 0
-767 -21 0
767 21 0
-768 -155 0
768 155 0
-769 -158 0
769 158 0
-770 -47 0
770 47 0
-771 -161 0
771 161 0
-772 -48 0
772 48 0
-773 -164 0
773 164 0
-774 -167 0
774 167 0
-775 -170 0
775 170 0
-776 -173 0
776 173 0
-777 -176 0
777 176 0
-778 -22 0
778 22 0
-779 -179 0
779 179 0
-780 -7 0
780 7 0
-781 -15 0
781 15 0
-782 -182 0
782 182 0
-783 -49 0
783 49 0
-784 -185 0
784 185 0
-785 -13 0
785 13 0
-786 -188 0
786 188 0
-787 -50 0
787 50 0
-788 -191 0
788 191 0
-789 -194 0
789 194 0
-790 -41 0
790 41 0
-791 -197 0
791 197 0
-792 -200 0
792 200 0
-793 -203 0
793 203 0
-794 -206 0
794 206 0
-795 -209 0
795 209 0
-796 -44 0
796 44 0
-797 -36 0
797 36 0
-798 -212 0
798 212 0
-799 -215 0
799 215 0
-800 -218 0
800 218 0
-801 -221 0
801 221 0
-802 -224 0
802 224 0
-803 -227 0
803 227 0
-804 -230 0
804 230 0
-805 -233 0
805 233 0
-806 -236 0
806 236 0
-807 -239 0
807 239 0
-808 -242 0
808 242 0
-809 -245 0
809 245 0
-810 -248 0
810 248 0
-811 -251 0
811 251 0
-812 -254 0
812 254 0
-813 -257 0
813 257 0
-814 -260 0
814 260 0
-815 -263 0
815 263 0
-816 -266 0
816 266 0
-817 -269 0
817 269 0
-818 -3 0
818 3 0
-819 -272 0
819 272 0
-820 -275 0
820 275 0
-821 -278 0
821 278 0
-822 -281 0
822 281 0
-823 -284 0
823 284 0
-824 -287 0
824 287 0
-825 -290 0
825 290 0
-826 -293 0
826 293 0
-827 -296 0
827 296 0
-828 -23 0
828 23 0
-829 -299 0
829 299 0
-830 -302 0
830 302 0
-831 -305 0
831 305 0
-832 -308 0
832 308 0
-833 -311 0
833 311 0
-834 -314 0
834 314 0
-835 -317 0
835 317 0
-836 -320 0
836 320 0
-837 -323 0
837 323 0
-838 -326 0
838 326 0
-839 -329 0
839 329 0
-840 -332 0
840 332 0
-841 -335 0
841 335 0
-842 -338 0
842 338 0
-843 -341 0
843 341 0
-844 -344 0
844 344 0
-845 -347 0
845 347 0
-846 -350 0
846 350 0
-847 -353 0
847 353 0
-848 -356 0
848 356 0
-849 -359 0
849 359 0
-850 -362 0
850 362 0
-851 -365 0
851 365 0
-852 -368 0
852 368 0
-853 -371 0
853 371 0
-854 -374 0
854 374 0
-855 -377 0
855 377 0
-856 -380 0
856 380 0
-857 -383 0
857 383 0
-858 -386 0
858 386 0
-859 -389 0
859 389 0
-860 -392 0
860 392 0
-861 -395 0
861 395 0
-862 -398 0
862 398 0
-863 -401 0
863 401 0
-864 -404 0
864 404 0
-865 -407 0
865 407 0
-866 -410 0
866 410 0
-867 -413 0
867 413 0
-868 -416 0
868 416 0
-869 -419 0
869 419 0
-870 -421 0
870 421 0
-871 -14 0
871 14 0
-872 -424 0
872 424 0
-873 -427 0
873 427 0
-874 -430 0
874 430 0
-875 -433 0
875 433 0
-876 -436 0
876 436 0
-877 -439 0
877 439 0
-878 -442 0
878 442 0
-879 -445 0
879 445 0
-880 -448 0
880 448 0
-881 -451 0
881 451 0
-882 -454 0
882 454 0
-883 -457 0
883 457 0
-884 -460 0
884 460 0
-885 -463 0
885 463 0
-886 -466 0
886 466 0
-887 -469 0
887 469 0
-888 -472 0
888 472 0
-889 -475 0
889 475 0
-890 -478 0
890 478 0
-891 -481 0
891 481 0
-892 -484 0
892 484 0
-893 -487 0
893 487 0
-894 -490 0
894 490 0
-895 -493 0
895 493 0
-896 -496 0
896 496 0
-897 -499 0
897 499 0
-898 -32 0
898 32 0
-899 -502 0
899 502 0
-900 -505 0
900 505 0
-901 -507 0
901 507 0
-902 -510 0
902 510 0
-903 -512 0
903 512 0
-904 -515 0
904 515 0
-905 -518 0
905 518 0
-906 -521 0
906 521 0
-907 -524 0
907 524 0
-908 -527 0
908 527 0
-909 -530 0
909 530 0
-910 -533 0
910 533 0
-911 -536 0
911 536 0
-912 -539 0
912 539 0
-913 -542 0
913 542 0
-914 -545 0
914 545 0
-915 -548 0
915 548 0
-916 -551 0
916 551 0
-917 -554 0
917 554 0
-918 -557 0
918 557 0
-919 -560 0
919 560 0
-920 -563 0
920 563 0
-921 -566 0
921 566 0
-922 -569 0
922 569 0
-923 -572 0
923 572 0
-924 -575 0
924 575 0
-925 -578 0
925 578 0
-926 -581 0
926 581 0
-927 -584 0
927 584 0
-928 -587 0
928 587 0
-929 -590 0
929 590 0
-930 -593 0
930 593 0
-931 -596 0
931 596 0
-932 -599 0
932 599 0
-933 -602 0
933 602 0
-934 -605 0
934 605 0
-935 -608 0
935 608 0
-936 -611 0
936 611 0
-937 -614 0
937 614 0
-938 -617 0
938 617 0
-939 -620 0
939 620 0
-940 -623 0
940 623 0
-941 -625 0
941 625 0
-942 -628 0
942 628 0
-943 -631 0
943 631 0
-944 -634 0
944 634 0
-945 -637 0
945 637 0
-946 -640 0
946 640 0
-947 -643 0
947 643 0
-948 -646 0
948 646 0
-949 -649 0
949 649 0
-950 -652 0
950 652 0
-951 -655 0
951 655 0
-952 -658 0
952 658 0
-953 -661 0
953 661 0
-954 -664 0
954 664 0
-955 -667 0
955 667 0
-956 -670 0
956 670 0
-957 -673 0
957 673 0
-958 -676 0
958 676 0
-959 -679 0
959 679 0
-960 -682 0
960 682 0
-961 -684 0
961 684 0
-962 -687 0
962 687 0
-963 -690 0
963 690 0
-964 -693 0
964 693 0
-965 -696 0
965 696 0
697 0
